-81.0 1.0 3.0 10.0 1.0 1.0 7.0 7.0 7.0 4.0 5.0 7.0 2.0 0.0 5.0 4.0 7.0 10.0 
1.0 -79.0 8.0 3.0 7.0 8.0 3.0 2.0 1.0 4.0 2.0 8.0 8.0 2.0 10.0 4.0 8.0 0.0 
3.0 8.0 -115.0 9.0 8.0 9.0 9.0 4.0 1.0 8.0 9.0 5.0 5.0 10.0 8.0 9.0 4.0 6.0 
10.0 3.0 9.0 -106.0 1.0 10.0 1.0 4.0 4.0 2.0 10.0 5.0 10.0 5.0 9.0 10.0 10.0 3.0 
1.0 7.0 8.0 1.0 -88.0 6.0 10.0 4.0 4.0 6.0 2.0 3.0 6.0 9.0 5.0 9.0 1.0 6.0 
1.0 8.0 9.0 10.0 6.0 -103.0 10.0 10.0 5.0 8.0 10.0 0.0 6.0 8.0 3.0 0.0 1.0 8.0 
7.0 3.0 9.0 1.0 10.0 10.0 -89.0 0.0 0.0 9.0 10.0 0.0 10.0 6.0 8.0 1.0 2.0 3.0 
7.0 2.0 4.0 4.0 4.0 10.0 0.0 -86.0 8.0 10.0 10.0 2.0 8.0 3.0 6.0 3.0 0.0 5.0 
7.0 1.0 1.0 4.0 4.0 5.0 0.0 8.0 -74.0 1.0 5.0 0.0 7.0 9.0 8.0 6.0 0.0 8.0 
4.0 4.0 8.0 2.0 6.0 8.0 9.0 10.0 1.0 -88.0 2.0 0.0 0.0 7.0 9.0 6.0 9.0 3.0 
5.0 2.0 9.0 10.0 2.0 10.0 10.0 10.0 5.0 2.0 -98.0 5.0 2.0 3.0 8.0 2.0 9.0 4.0 
7.0 8.0 5.0 5.0 3.0 0.0 0.0 2.0 0.0 0.0 5.0 -68.0 7.0 0.0 7.0 2.0 8.0 9.0 
2.0 8.0 5.0 10.0 6.0 6.0 10.0 8.0 7.0 0.0 2.0 7.0 -101.0 6.0 9.0 10.0 3.0 2.0 
0.0 2.0 10.0 5.0 9.0 8.0 6.0 3.0 9.0 7.0 3.0 0.0 6.0 -95.0 9.0 3.0 10.0 5.0 
5.0 10.0 8.0 9.0 5.0 3.0 8.0 6.0 8.0 9.0 8.0 7.0 9.0 9.0 -113.0 1.0 0.0 8.0 
4.0 4.0 9.0 10.0 9.0 0.0 1.0 3.0 6.0 6.0 2.0 2.0 10.0 3.0 1.0 -78.0 4.0 4.0 
7.0 8.0 4.0 10.0 1.0 1.0 2.0 0.0 0.0 9.0 9.0 8.0 3.0 10.0 0.0 4.0 -80.0 4.0 
10.0 0.0 6.0 3.0 6.0 8.0 3.0 5.0 8.0 3.0 4.0 9.0 2.0 5.0 8.0 4.0 4.0 -88.0 

